c CNF
c from Selman's wff generator
p cnf 200  1700
1.0 -120 108 0
1.0 -81 55 0
1.0 -78 72 0
1.0 -14 -36 0
1.0 121 -188 0
1.0 -168 -180 0
1.0 146 38 0
1.0 159 197 0
1.0 -105 -13 0
1.0 67 -44 0
1.0 115 -52 0
1.0 88 198 0
1.0 -185 -126 0
1.0 -105 166 0
1.0 3 -150 0
1.0 147 157 0
1.0 169 173 0
1.0 -17 -117 0
1.0 169 184 0
1.0 181 -127 0
1.0 -53 -51 0
1.0 16 22 0
1.0 -172 -66 0
1.0 -23 -19 0
1.0 191 7 0
1.0 -124 6 0
1.0 -189 -199 0
1.0 -125 -10 0
1.0 -61 52 0
1.0 74 141 0
1.0 -7 74 0
1.0 92 134 0
1.0 141 46 0
1.0 -52 28 0
1.0 26 -103 0
1.0 -112 -144 0
1.0 196 62 0
1.0 -2 143 0
1.0 16 -78 0
1.0 -11 -56 0
1.0 102 -79 0
1.0 -106 -171 0
1.0 74 -2 0
1.0 -146 -10 0
1.0 71 6 0
1.0 148 -124 0
1.0 2 117 0
1.0 -173 60 0
1.0 138 179 0
1.0 -150 18 0
1.0 20 -57 0
1.0 -66 -165 0
1.0 171 -115 0
1.0 39 90 0
1.0 6 -151 0
1.0 10 -16 0
1.0 -195 -78 0
1.0 -96 -166 0
1.0 22 174 0
1.0 139 -184 0
1.0 99 -32 0
1.0 -121 -108 0
1.0 -58 29 0
1.0 45 156 0
1.0 -34 -5 0
1.0 170 -148 0
1.0 122 -78 0
1.0 101 -170 0
1.0 197 -142 0
1.0 -119 -179 0
1.0 -83 28 0
1.0 42 30 0
1.0 12 -1 0
1.0 44 -6 0
1.0 84 -142 0
1.0 -112 -75 0
1.0 16 -167 0
1.0 145 173 0
1.0 1 72 0
1.0 101 -139 0
1.0 139 -104 0
1.0 -109 -152 0
1.0 -94 18 0
1.0 -92 -90 0
1.0 57 125 0
1.0 98 121 0
1.0 -192 96 0
1.0 34 -29 0
1.0 -133 76 0
1.0 27 -101 0
1.0 -118 9 0
1.0 -99 -39 0
1.0 -164 157 0
1.0 -77 186 0
1.0 -81 -101 0
1.0 130 166 0
1.0 -41 40 0
1.0 -141 136 0
1.0 145 113 0
1.0 -151 -184 0
1.0 -140 154 0
1.0 139 135 0
1.0 -35 -47 0
1.0 13 19 0
1.0 -58 -129 0
1.0 65 110 0
1.0 23 -123 0
1.0 106 48 0
1.0 1 -63 0
1.0 -197 148 0
1.0 -195 91 0
1.0 109 -22 0
1.0 -151 183 0
1.0 93 -19 0
1.0 142 75 0
1.0 123 -175 0
1.0 37 156 0
1.0 104 21 0
1.0 -111 62 0
1.0 -83 168 0
1.0 150 148 0
1.0 -166 -72 0
1.0 -146 44 0
1.0 -18 47 0
1.0 2 -54 0
1.0 74 -153 0
1.0 14 109 0
1.0 -76 187 0
1.0 134 178 0
1.0 50 -24 0
1.0 68 160 0
1.0 -7 54 0
1.0 -108 -27 0
1.0 -180 -117 0
1.0 25 -169 0
1.0 -155 20 0
1.0 -198 194 0
1.0 18 194 0
1.0 -154 -104 0
1.0 -158 110 0
1.0 137 -82 0
1.0 -198 13 0
1.0 -182 -200 0
1.0 19 49 0
1.0 43 13 0
1.0 -6 -104 0
1.0 -7 -117 0
1.0 27 -87 0
1.0 169 -78 0
1.0 -90 189 0
1.0 188 111 0
1.0 160 32 0
1.0 44 84 0
1.0 188 -10 0
1.0 -126 -127 0
1.0 -14 -189 0
1.0 -66 -194 0
1.0 183 -136 0
1.0 -46 34 0
1.0 65 -198 0
1.0 -82 71 0
1.0 81 166 0
1.0 -93 -22 0
1.0 10 73 0
1.0 67 36 0
1.0 172 58 0
1.0 91 -194 0
1.0 192 31 0
1.0 -102 -21 0
1.0 -186 5 0
1.0 -26 146 0
1.0 -19 73 0
1.0 -109 141 0
1.0 199 151 0
1.0 145 -120 0
1.0 151 108 0
1.0 129 -151 0
1.0 -155 -22 0
1.0 167 -177 0
1.0 50 -125 0
1.0 66 3 0
1.0 -153 137 0
1.0 57 197 0
1.0 104 42 0
1.0 -193 -92 0
1.0 -113 139 0
1.0 116 -142 0
1.0 -66 -134 0
1.0 -136 163 0
1.0 -99 -148 0
1.0 -144 19 0
1.0 61 20 0
1.0 -111 26 0
1.0 -165 126 0
1.0 67 -168 0
1.0 101 170 0
1.0 -132 59 0
1.0 -6 -111 0
1.0 -129 -147 0
1.0 166 76 0
1.0 -102 42 0
1.0 -168 3 0
1.0 -170 191 0
1.0 -161 30 0
1.0 -89 32 0
1.0 142 109 0
1.0 55 39 0
1.0 115 103 0
1.0 144 -198 0
1.0 -1 -29 0
1.0 20 -111 0
1.0 141 148 0
1.0 -179 -194 0
1.0 -102 -166 0
1.0 -4 -52 0
1.0 -154 74 0
1.0 72 18 0
1.0 46 152 0
1.0 63 82 0
1.0 29 116 0
1.0 -110 156 0
1.0 -121 -119 0
1.0 171 -145 0
1.0 19 179 0
1.0 -196 29 0
1.0 -181 2 0
1.0 84 -151 0
1.0 -66 -79 0
1.0 -34 -47 0
1.0 166 -155 0
1.0 99 -121 0
1.0 99 81 0
1.0 -109 169 0
1.0 -170 43 0
1.0 -193 178 0
1.0 57 84 0
1.0 131 21 0
1.0 175 122 0
1.0 -43 -92 0
1.0 172 199 0
1.0 -167 -172 0
1.0 -15 100 0
1.0 77 -154 0
1.0 38 -101 0
1.0 121 67 0
1.0 -189 95 0
1.0 -186 -160 0
1.0 159 -9 0
1.0 181 -5 0
1.0 104 -51 0
1.0 -4 69 0
1.0 169 136 0
1.0 -3 -72 0
1.0 167 -153 0
1.0 -112 195 0
1.0 -4 -146 0
1.0 -151 56 0
1.0 106 -181 0
1.0 -49 147 0
1.0 -83 159 0
1.0 31 -90 0
1.0 -42 -98 0
1.0 93 58 0
1.0 4 -18 0
1.0 73 -58 0
1.0 39 42 0
1.0 -189 37 0
1.0 -195 12 0
1.0 101 -32 0
1.0 130 171 0
1.0 -28 120 0
1.0 -137 198 0
1.0 -56 193 0
1.0 -35 73 0
1.0 110 -87 0
1.0 -99 -51 0
1.0 -83 151 0
1.0 121 -38 0
1.0 -158 153 0
1.0 -150 165 0
1.0 157 -90 0
1.0 163 82 0
1.0 -169 108 0
1.0 159 105 0
1.0 56 -8 0
1.0 -46 87 0
1.0 39 -105 0
1.0 -69 199 0
1.0 89 95 0
1.0 -176 -29 0
1.0 137 98 0
1.0 -3 77 0
1.0 84 -189 0
1.0 -76 -160 0
1.0 -65 -28 0
1.0 -27 -98 0
1.0 -192 -174 0
1.0 -3 -87 0
1.0 184 -124 0
1.0 200 171 0
1.0 160 79 0
1.0 -39 -144 0
1.0 172 -53 0
1.0 -151 -193 0
1.0 -166 -77 0
1.0 -164 -22 0
1.0 -146 -142 0
1.0 112 178 0
1.0 -57 42 0
1.0 -186 -56 0
1.0 -108 32 0
1.0 -25 -67 0
1.0 -144 -110 0
1.0 132 65 0
1.0 6 -188 0
1.0 -166 51 0
1.0 -93 94 0
1.0 149 113 0
1.0 -145 -190 0
1.0 -57 114 0
1.0 -24 -117 0
1.0 181 -162 0
1.0 -150 -53 0
1.0 -104 -90 0
1.0 183 -53 0
1.0 -166 -111 0
1.0 101 -102 0
1.0 -16 38 0
1.0 -154 -64 0
1.0 -26 -24 0
1.0 77 -21 0
1.0 -111 27 0
1.0 80 53 0
1.0 -163 13 0
1.0 114 -34 0
1.0 -71 177 0
1.0 -40 160 0
1.0 184 76 0
1.0 97 130 0
1.0 157 19 0
1.0 71 124 0
1.0 136 36 0
1.0 -69 -116 0
1.0 -92 -146 0
1.0 -105 121 0
1.0 -196 37 0
1.0 166 -190 0
1.0 -8 198 0
1.0 -122 39 0
1.0 -74 -8 0
1.0 123 85 0
1.0 -30 -46 0
1.0 166 -142 0
1.0 178 -172 0
1.0 162 -153 0
1.0 150 24 0
1.0 -62 -160 0
1.0 168 34 0
1.0 -118 -160 0
1.0 6 -50 0
1.0 -192 -105 0
1.0 -76 187 0
1.0 139 179 0
1.0 -2 54 0
1.0 -14 -86 0
1.0 120 77 0
1.0 -37 175 0
1.0 25 66 0
1.0 -171 146 0
1.0 133 99 0
1.0 -77 90 0
1.0 -144 -118 0
1.0 -4 -140 0
1.0 -16 8 0
1.0 183 144 0
1.0 10 -107 0
1.0 52 -10 0
1.0 108 -111 0
1.0 200 -15 0
1.0 -133 -3 0
1.0 143 -38 0
1.0 46 19 0
1.0 163 -104 0
1.0 -10 60 0
1.0 69 -180 0
1.0 -90 101 0
1.0 116 22 0
1.0 -25 -133 0
1.0 -171 43 0
1.0 62 136 0
1.0 -39 79 0
1.0 -139 148 0
1.0 -127 156 0
1.0 -57 -144 0
1.0 166 -139 0
1.0 -71 4 0
1.0 47 -83 0
1.0 -19 100 0
1.0 -179 -127 0
1.0 -75 16 0
1.0 171 107 0
1.0 -51 124 0
1.0 62 -19 0
1.0 -23 164 0
1.0 -47 30 0
1.0 -129 -109 0
1.0 36 -28 0
1.0 -43 147 0
1.0 54 -131 0
1.0 -54 -38 0
1.0 57 126 0
1.0 -89 -22 0
1.0 -52 -124 0
1.0 32 122 0
1.0 -149 -110 0
1.0 57 -89 0
1.0 19 44 0
1.0 -82 -134 0
1.0 59 -37 0
1.0 59 -163 0
1.0 87 -83 0
1.0 -5 -177 0
1.0 -87 -163 0
1.0 51 150 0
1.0 -194 68 0
1.0 1 131 0
1.0 168 29 0
1.0 -191 91 0
1.0 -174 -26 0
1.0 -3 181 0
1.0 143 -77 0
1.0 26 86 0
1.0 153 -6 0
1.0 137 -107 0
1.0 -135 -21 0
1.0 111 67 0
1.0 93 198 0
1.0 -178 -194 0
1.0 -70 17 0
1.0 -102 177 0
1.0 183 -8 0
1.0 114 20 0
1.0 -40 -154 0
1.0 20 -176 0
1.0 174 -97 0
1.0 90 -191 0
1.0 7 -186 0
1.0 -163 -168 0
1.0 175 169 0
1.0 -189 88 0
1.0 -42 109 0
1.0 -85 14 0
1.0 110 -181 0
1.0 -172 -81 0
1.0 66 12 0
1.0 -179 -49 0
1.0 18 37 0
1.0 124 -178 0
1.0 86 -13 0
1.0 26 -200 0
1.0 -181 -36 0
1.0 -116 -92 0
1.0 103 17 0
1.0 65 181 0
1.0 18 -77 0
1.0 -54 -122 0
1.0 -135 -133 0
1.0 132 -137 0
1.0 173 30 0
1.0 121 193 0
1.0 -10 79 0
1.0 -60 139 0
1.0 15 45 0
1.0 167 -124 0
1.0 56 -117 0
1.0 53 157 0
1.0 -187 -163 0
1.0 -156 -183 0
1.0 61 -34 0
1.0 -173 -196 0
1.0 41 14 0
1.0 -137 -63 0
1.0 -179 170 0
1.0 127 -78 0
1.0 40 -170 0
1.0 -152 149 0
1.0 -183 -199 0
1.0 -194 129 0
1.0 142 199 0
1.0 62 149 0
1.0 119 50 0
1.0 -128 158 0
1.0 177 -163 0
1.0 -122 -61 0
1.0 -193 -65 0
1.0 8 147 0
1.0 188 -141 0
1.0 12 109 0
1.0 -180 -100 0
1.0 57 155 0
1.0 -117 52 0
1.0 -112 -69 0
1.0 133 -71 0
1.0 -18 89 0
1.0 -30 14 0
1.0 -123 -196 0
1.0 95 -88 0
1.0 -43 -12 0
1.0 -63 -145 0
1.0 14 -154 0
1.0 25 105 0
1.0 193 32 0
1.0 46 -187 0
1.0 183 163 0
1.0 51 78 0
1.0 89 -15 0
1.0 -160 -48 0
1.0 -2 6 0
1.0 110 -3 0
1.0 -34 114 0
1.0 100 187 0
1.0 -149 -115 0
1.0 192 189 0
1.0 3 -144 0
1.0 -191 -159 0
1.0 164 53 0
1.0 -55 85 0
1.0 -199 100 0
1.0 -86 13 0
1.0 128 -140 0
1.0 -128 -126 0
1.0 69 32 0
1.0 190 -28 0
1.0 80 -71 0
1.0 156 -2 0
1.0 102 -190 0
1.0 3 -32 0
1.0 171 56 0
1.0 182 49 0
1.0 -80 122 0
1.0 149 163 0
1.0 -33 -48 0
1.0 -50 -185 0
1.0 -174 -192 0
1.0 -24 -161 0
1.0 17 -156 0
1.0 4 122 0
1.0 -43 -159 0
1.0 121 -174 0
1.0 -22 181 0
1.0 166 -82 0
1.0 -74 162 0
1.0 123 -22 0
1.0 -177 -183 0
1.0 105 -186 0
1.0 -144 16 0
1.0 189 159 0
1.0 139 -157 0
1.0 39 -105 0
1.0 66 -158 0
1.0 -180 -98 0
1.0 -81 -65 0
1.0 -50 -200 0
1.0 16 72 0
1.0 30 -74 0
1.0 31 96 0
1.0 -200 116 0
1.0 73 187 0
1.0 85 -181 0
1.0 -46 145 0
1.0 145 -83 0
1.0 -155 -145 0
1.0 -18 178 0
1.0 -74 25 0
1.0 -140 95 0
1.0 82 -193 0
1.0 -174 74 0
1.0 -18 -82 0
1.0 -165 -1 0
1.0 -145 -86 0
1.0 63 -55 0
1.0 79 126 0
1.0 21 -148 0
1.0 140 -96 0
1.0 -169 -200 0
1.0 -82 45 0
1.0 -45 -71 0
1.0 -157 67 0
1.0 -122 163 0
1.0 89 -165 0
1.0 113 50 0
1.0 -146 -79 0
1.0 -79 -96 0
1.0 140 -51 0
1.0 -122 170 0
1.0 36 -127 0
1.0 -89 -52 0
1.0 17 -176 0
1.0 -26 -97 0
1.0 175 145 0
1.0 41 -188 0
1.0 -38 -17 0
1.0 186 140 0
1.0 -66 -133 0
1.0 -185 136 0
1.0 -111 -18 0
1.0 -114 110 0
1.0 -55 194 0
1.0 181 154 0
1.0 -171 -41 0
1.0 -180 14 0
1.0 147 -157 0
1.0 -92 133 0
1.0 -150 62 0
1.0 -172 47 0
1.0 -40 93 0
1.0 47 197 0
1.0 -37 15 0
1.0 28 -151 0
1.0 -108 -63 0
1.0 196 -37 0
1.0 99 141 0
1.0 187 160 0
1.0 52 17 0
1.0 -13 84 0
1.0 98 -87 0
1.0 38 -129 0
1.0 -191 -5 0
1.0 -42 -145 0
1.0 86 139 0
1.0 98 -105 0
1.0 122 -144 0
1.0 -28 -163 0
1.0 49 50 0
1.0 178 -151 0
1.0 -155 -174 0
1.0 -119 85 0
1.0 24 -146 0
1.0 50 -175 0
1.0 -119 106 0
1.0 -90 -71 0
1.0 -122 16 0
1.0 47 85 0
1.0 -40 -24 0
1.0 -159 -143 0
1.0 -19 -69 0
1.0 -140 126 0
1.0 -31 -58 0
1.0 129 70 0
1.0 -86 -175 0
1.0 -60 150 0
1.0 173 -90 0
1.0 32 171 0
1.0 39 -190 0
1.0 115 -156 0
1.0 14 -178 0
1.0 -48 -123 0
1.0 98 -116 0
1.0 66 17 0
1.0 -107 -79 0
1.0 -49 6 0
1.0 195 -32 0
1.0 188 104 0
1.0 -82 -118 0
1.0 41 -137 0
1.0 53 -128 0
1.0 -145 151 0
1.0 -30 127 0
1.0 -133 -177 0
1.0 9 -32 0
1.0 -136 89 0
1.0 -6 139 0
1.0 -76 -9 0
1.0 137 79 0
1.0 -30 2 0
1.0 -129 120 0
1.0 -96 -102 0
1.0 134 22 0
1.0 111 -96 0
1.0 -35 -32 0
1.0 41 -146 0
1.0 25 82 0
1.0 -84 189 0
1.0 108 50 0
1.0 -152 59 0
1.0 -80 -8 0
1.0 -104 -39 0
1.0 71 -68 0
1.0 14 85 0
1.0 166 146 0
1.0 135 6 0
1.0 56 132 0
1.0 190 155 0
1.0 162 44 0
1.0 83 -166 0
1.0 34 51 0
1.0 135 -154 0
1.0 -100 179 0
1.0 185 10 0
1.0 142 -122 0
1.0 77 138 0
1.0 -182 61 0
1.0 27 106 0
1.0 -156 82 0
1.0 -35 -195 0
1.0 -174 -140 0
1.0 -150 44 0
1.0 166 44 0
1.0 181 -23 0
1.0 84 -183 0
1.0 -89 43 0
1.0 -124 -80 0
1.0 74 125 0
1.0 65 61 0
1.0 -105 2 0
1.0 -46 127 0
1.0 -150 191 0
1.0 -173 13 0
1.0 -55 -116 0
1.0 -195 40 0
1.0 -165 31 0
1.0 92 -121 0
1.0 122 -147 0
1.0 -74 177 0
1.0 168 -181 0
1.0 193 1 0
1.0 116 -106 0
1.0 -146 -165 0
1.0 -196 94 0
1.0 14 -181 0
1.0 -128 148 0
1.0 124 96 0
1.0 77 80 0
1.0 -80 -32 0
1.0 -138 144 0
1.0 -108 -83 0
1.0 -177 -130 0
1.0 -110 72 0
1.0 19 -29 0
1.0 125 62 0
1.0 141 65 0
1.0 96 187 0
1.0 -131 121 0
1.0 -4 -107 0
1.0 -37 -131 0
1.0 -3 97 0
1.0 -126 21 0
1.0 82 198 0
1.0 62 -121 0
1.0 -108 60 0
1.0 180 -106 0
1.0 -13 19 0
1.0 -149 -134 0
1.0 -30 -178 0
1.0 198 137 0
1.0 -134 -56 0
1.0 -177 145 0
1.0 -4 -144 0
1.0 -49 199 0
1.0 -18 -130 0
1.0 -63 105 0
1.0 82 91 0
1.0 -27 -51 0
1.0 -106 60 0
1.0 -5 110 0
1.0 -53 -89 0
1.0 -88 -158 0
1.0 87 -73 0
1.0 178 188 0
1.0 -79 -87 0
1.0 138 96 0
1.0 -156 -22 0
1.0 -131 -91 0
1.0 180 161 0
1.0 -118 48 0
1.0 -121 42 0
1.0 -30 -195 0
1.0 82 94 0
1.0 190 -78 0
1.0 -100 186 0
1.0 77 74 0
1.0 -34 -98 0
1.0 -145 94 0
1.0 -136 -111 0
1.0 105 -119 0
1.0 12 86 0
1.0 -163 66 0
1.0 -52 -93 0
1.0 -106 185 0
1.0 -108 109 0
1.0 -65 -13 0
1.0 175 102 0
1.0 -175 67 0
1.0 71 -106 0
1.0 -53 -85 0
1.0 177 117 0
1.0 101 187 0
1.0 95 -32 0
1.0 -44 147 0
1.0 -49 15 0
1.0 81 -15 0
1.0 121 -106 0
1.0 190 -75 0
1.0 191 106 0
1.0 92 -133 0
1.0 -164 109 0
1.0 56 -81 0
1.0 -96 -136 0
1.0 -151 10 0
1.0 115 -15 0
1.0 89 122 0
1.0 -28 -119 0
1.0 -52 71 0
1.0 180 51 0
1.0 -132 49 0
1.0 185 -65 0
1.0 74 -130 0
1.0 144 52 0
1.0 -174 164 0
1.0 -83 -119 0
1.0 -24 149 0
1.0 172 167 0
1.0 105 -32 0
1.0 34 -139 0
1.0 -145 -32 0
1.0 -125 139 0
1.0 -51 -170 0
1.0 88 -106 0
1.0 -55 20 0
1.0 186 190 0
1.0 21 49 0
1.0 188 -103 0
1.0 -135 124 0
1.0 -63 -97 0
1.0 66 -120 0
1.0 25 134 0
1.0 -153 -50 0
1.0 39 151 0
1.0 -200 -89 0
1.0 -191 -132 0
1.0 -55 -46 0
1.0 143 133 0
1.0 -53 77 0
1.0 -10 -26 0
1.0 -75 -62 0
1.0 -12 129 0
1.0 -17 88 0
1.0 -19 116 0
1.0 -161 -118 0
1.0 -51 -21 0
1.0 -97 -72 0
1.0 98 -137 0
1.0 198 169 0
1.0 98 -59 0
1.0 -146 -18 0
1.0 133 55 0
1.0 -173 28 0
1.0 -48 -107 0
1.0 179 106 0
1.0 42 119 0
1.0 88 -134 0
1.0 192 -69 0
1.0 -87 21 0
1.0 -75 139 0
1.0 166 109 0
1.0 -16 -197 0
1.0 103 -7 0
1.0 -126 119 0
1.0 -52 33 0
1.0 -101 -96 0
1.0 116 -83 0
1.0 21 -118 0
1.0 -26 109 0
1.0 106 155 0
1.0 -161 105 0
1.0 23 137 0
1.0 -169 97 0
1.0 192 -99 0
1.0 182 63 0
1.0 -180 136 0
1.0 45 -185 0
1.0 -140 -81 0
1.0 -186 111 0
1.0 47 86 0
1.0 182 -1 0
1.0 100 142 0
1.0 4 -180 0
1.0 -116 -69 0
1.0 -54 -35 0
1.0 115 68 0
1.0 -179 80 0
1.0 165 -191 0
1.0 -191 126 0
1.0 -67 2 0
1.0 181 53 0
1.0 122 -41 0
1.0 -75 -166 0
1.0 33 62 0
1.0 141 -198 0
1.0 188 -77 0
1.0 2 173 0
1.0 -174 -40 0
1.0 92 190 0
1.0 -31 -106 0
1.0 71 -157 0
1.0 -18 -185 0
1.0 183 -151 0
1.0 -28 116 0
1.0 88 18 0
1.0 57 -36 0
1.0 -26 66 0
1.0 -172 151 0
1.0 -107 -57 0
1.0 42 60 0
1.0 -11 147 0
1.0 62 -144 0
1.0 162 167 0
1.0 -3 26 0
1.0 91 129 0
1.0 -79 -46 0
1.0 -103 -50 0
1.0 -109 -193 0
1.0 -139 -164 0
1.0 -108 27 0
1.0 193 -158 0
1.0 183 53 0
1.0 -182 108 0
1.0 153 40 0
1.0 -89 -154 0
1.0 -146 169 0
1.0 132 75 0
1.0 -102 32 0
1.0 189 -194 0
1.0 47 113 0
1.0 20 -181 0
1.0 21 -132 0
1.0 -86 28 0
1.0 -197 -23 0
1.0 -98 -199 0
1.0 30 75 0
1.0 -69 -183 0
1.0 -95 -35 0
1.0 16 31 0
1.0 -162 115 0
1.0 142 -51 0
1.0 74 -193 0
1.0 -192 33 0
1.0 108 -63 0
1.0 46 -29 0
1.0 64 35 0
1.0 -66 141 0
1.0 55 -60 0
1.0 -111 -153 0
1.0 -146 -200 0
1.0 -33 -124 0
1.0 -187 196 0
1.0 -25 7 0
1.0 -42 -27 0
1.0 -167 83 0
1.0 142 9 0
1.0 161 -153 0
1.0 152 -190 0
1.0 -114 -200 0
1.0 -196 40 0
1.0 -46 104 0
1.0 -130 76 0
1.0 -158 129 0
1.0 137 152 0
1.0 187 -4 0
1.0 46 25 0
1.0 149 -191 0
1.0 122 61 0
1.0 -169 121 0
1.0 116 52 0
1.0 -170 -100 0
1.0 -52 78 0
1.0 81 -37 0
1.0 -62 105 0
1.0 -95 12 0
1.0 73 32 0
1.0 153 197 0
1.0 -48 85 0
1.0 -185 92 0
1.0 169 121 0
1.0 -157 88 0
1.0 192 148 0
1.0 -160 27 0
1.0 58 144 0
1.0 140 -156 0
1.0 40 189 0
1.0 80 130 0
1.0 51 133 0
1.0 21 75 0
1.0 22 -55 0
1.0 82 -200 0
1.0 -143 86 0
1.0 41 27 0
1.0 -15 76 0
1.0 -6 164 0
1.0 97 -41 0
1.0 -115 -89 0
1.0 -144 26 0
1.0 -26 -131 0
1.0 16 113 0
1.0 -139 -121 0
1.0 196 42 0
1.0 5 -190 0
1.0 30 -119 0
1.0 8 -146 0
1.0 -172 -199 0
1.0 -130 -139 0
1.0 52 -16 0
1.0 -136 -139 0
1.0 -180 -190 0
1.0 179 189 0
1.0 -108 -104 0
1.0 49 33 0
1.0 32 -42 0
1.0 -180 183 0
1.0 199 -107 0
1.0 46 164 0
1.0 154 -199 0
1.0 -188 95 0
1.0 198 94 0
1.0 126 -76 0
1.0 -117 86 0
1.0 -68 23 0
1.0 130 -148 0
1.0 -112 68 0
1.0 -66 9 0
1.0 -104 -138 0
1.0 -31 -157 0
1.0 -33 -15 0
1.0 100 -31 0
1.0 54 -172 0
1.0 -120 36 0
1.0 104 -158 0
1.0 167 93 0
1.0 -30 170 0
1.0 127 -120 0
1.0 -135 130 0
1.0 161 152 0
1.0 -123 37 0
1.0 73 -155 0
1.0 -113 169 0
1.0 -61 168 0
1.0 -137 121 0
1.0 40 -166 0
1.0 95 129 0
1.0 80 10 0
1.0 47 -66 0
1.0 21 -118 0
1.0 87 -40 0
1.0 7 -162 0
1.0 83 -186 0
1.0 152 29 0
1.0 -157 105 0
1.0 115 -170 0
1.0 36 84 0
1.0 -2 175 0
1.0 15 1 0
1.0 -163 71 0
1.0 -57 171 0
1.0 200 -65 0
1.0 -170 155 0
1.0 124 -31 0
1.0 115 -126 0
1.0 100 -3 0
1.0 -4 -39 0
1.0 110 -100 0
1.0 -71 180 0
1.0 45 27 0
1.0 181 -18 0
1.0 49 -144 0
1.0 69 -78 0
1.0 80 84 0
1.0 123 19 0
1.0 -118 -62 0
1.0 42 172 0
1.0 -199 -84 0
1.0 101 -199 0
1.0 -143 147 0
1.0 -24 -192 0
1.0 -75 -63 0
1.0 82 -36 0
1.0 -97 -28 0
1.0 199 -46 0
1.0 -129 124 0
1.0 -123 60 0
1.0 7 90 0
1.0 -82 -56 0
1.0 -119 -120 0
1.0 -156 183 0
1.0 -10 186 0
1.0 32 -14 0
1.0 -138 182 0
1.0 -42 168 0
1.0 57 -1 0
1.0 57 -10 0
1.0 -130 47 0
1.0 -29 174 0
1.0 160 -127 0
1.0 -141 53 0
1.0 -35 139 0
1.0 -106 -64 0
1.0 -65 -1 0
1.0 11 -195 0
1.0 41 72 0
1.0 -45 161 0
1.0 -87 156 0
1.0 -9 144 0
1.0 -83 -44 0
1.0 -108 -43 0
1.0 44 52 0
1.0 -46 190 0
1.0 -61 -18 0
1.0 -178 66 0
1.0 21 104 0
1.0 48 -197 0
1.0 -40 -192 0
1.0 -34 70 0
1.0 -121 -12 0
1.0 1 125 0
1.0 -142 -11 0
1.0 76 -183 0
1.0 75 126 0
1.0 -198 -157 0
1.0 76 -58 0
1.0 176 -100 0
1.0 -30 -33 0
1.0 87 48 0
1.0 14 -172 0
1.0 -69 72 0
1.0 142 192 0
1.0 -180 128 0
1.0 -73 -85 0
1.0 -72 132 0
1.0 -86 -57 0
1.0 -153 -120 0
1.0 -10 192 0
1.0 -63 187 0
1.0 179 -27 0
1.0 -155 166 0
1.0 -51 -63 0
1.0 -194 135 0
1.0 191 -87 0
1.0 7 54 0
1.0 46 -61 0
1.0 -48 69 0
1.0 -96 168 0
1.0 134 -145 0
1.0 -7 -41 0
1.0 175 -87 0
1.0 -173 -139 0
1.0 -192 176 0
1.0 -37 90 0
1.0 -158 57 0
1.0 -25 -94 0
1.0 -38 179 0
1.0 19 -48 0
1.0 -134 -123 0
1.0 61 67 0
1.0 43 81 0
1.0 -170 -35 0
1.0 -92 -73 0
1.0 167 84 0
1.0 62 16 0
1.0 63 -93 0
1.0 -15 32 0
1.0 -98 -188 0
1.0 68 19 0
1.0 -53 -183 0
1.0 55 146 0
1.0 29 134 0
1.0 -149 74 0
1.0 166 -43 0
1.0 74 -111 0
1.0 -98 -185 0
1.0 3 130 0
1.0 -112 -169 0
1.0 -114 -60 0
1.0 193 -13 0
1.0 -86 2 0
1.0 44 -160 0
1.0 70 -88 0
1.0 -72 199 0
1.0 -129 137 0
1.0 106 131 0
1.0 -191 -195 0
1.0 -8 193 0
1.0 -194 77 0
1.0 -37 -176 0
1.0 63 -43 0
1.0 41 -8 0
1.0 145 140 0
1.0 70 17 0
1.0 12 30 0
1.0 -22 167 0
1.0 44 56 0
1.0 -31 7 0
1.0 50 61 0
1.0 69 36 0
1.0 175 70 0
1.0 -87 132 0
1.0 -161 -146 0
1.0 -113 -28 0
1.0 84 -50 0
1.0 57 -21 0
1.0 -81 -34 0
1.0 -70 57 0
1.0 126 25 0
1.0 -156 -192 0
1.0 138 27 0
1.0 54 -96 0
1.0 146 40 0
1.0 -60 -57 0
1.0 91 -106 0
1.0 162 52 0
1.0 76 93 0
1.0 -85 10 0
1.0 36 47 0
1.0 143 76 0
1.0 116 -77 0
1.0 -134 200 0
1.0 -105 6 0
1.0 -57 -189 0
1.0 -81 -53 0
1.0 -62 113 0
1.0 -160 -58 0
1.0 -134 13 0
1.0 90 81 0
1.0 80 -140 0
1.0 146 32 0
1.0 -21 -4 0
1.0 56 -99 0
1.0 11 -53 0
1.0 110 2 0
1.0 15 -62 0
1.0 -142 117 0
1.0 56 176 0
1.0 7 57 0
1.0 -61 -138 0
1.0 36 194 0
1.0 46 -50 0
1.0 -51 87 0
1.0 -148 91 0
1.0 -8 98 0
1.0 74 118 0
1.0 -175 68 0
1.0 -5 35 0
1.0 29 185 0
1.0 34 101 0
1.0 -188 -28 0
1.0 119 -121 0
1.0 -19 137 0
1.0 -55 54 0
1.0 121 -79 0
1.0 -114 -15 0
1.0 200 50 0
1.0 -151 -45 0
1.0 72 -69 0
1.0 -189 99 0
1.0 36 106 0
1.0 -159 72 0
1.0 151 183 0
1.0 198 -168 0
1.0 18 -21 0
1.0 -65 -147 0
1.0 -15 179 0
1.0 77 -45 0
1.0 150 -111 0
1.0 -183 -121 0
1.0 -104 -191 0
1.0 159 -2 0
1.0 -23 126 0
1.0 73 48 0
1.0 26 -152 0
1.0 196 -103 0
1.0 14 -17 0
1.0 -137 41 0
1.0 -32 -125 0
1.0 -127 -38 0
1.0 164 109 0
1.0 -157 -61 0
1.0 13 16 0
1.0 -119 -100 0
1.0 -116 8 0
1.0 48 56 0
1.0 180 -34 0
1.0 72 35 0
1.0 144 91 0
1.0 152 -195 0
1.0 -11 -166 0
1.0 65 -125 0
1.0 132 -188 0
1.0 43 126 0
1.0 -160 128 0
1.0 163 -183 0
1.0 74 136 0
1.0 -131 -86 0
1.0 52 -159 0
1.0 84 131 0
1.0 -119 -130 0
1.0 -56 54 0
1.0 181 -112 0
1.0 95 -110 0
1.0 -45 -53 0
1.0 -139 -180 0
1.0 -139 187 0
1.0 118 5 0
1.0 -134 -32 0
1.0 85 180 0
1.0 92 -48 0
1.0 -157 57 0
1.0 -110 146 0
1.0 125 94 0
1.0 81 -146 0
1.0 150 122 0
1.0 153 29 0
1.0 -9 -76 0
1.0 124 111 0
1.0 168 40 0
1.0 -186 -59 0
1.0 -153 165 0
1.0 110 59 0
1.0 -180 -63 0
1.0 -92 -16 0
1.0 92 72 0
1.0 183 -87 0
1.0 127 -177 0
1.0 35 -152 0
1.0 116 195 0
1.0 53 50 0
1.0 -113 29 0
1.0 -45 -135 0
1.0 -7 -106 0
1.0 -193 -47 0
1.0 23 165 0
1.0 117 52 0
1.0 47 65 0
1.0 -115 143 0
1.0 171 97 0
1.0 -32 137 0
1.0 43 103 0
1.0 -149 -166 0
1.0 131 185 0
1.0 37 73 0
1.0 -138 137 0
1.0 79 114 0
1.0 11 110 0
1.0 47 17 0
1.0 -119 107 0
1.0 72 80 0
1.0 65 -67 0
1.0 -140 128 0
1.0 -64 -167 0
1.0 -80 7 0
1.0 -117 -58 0
1.0 74 -11 0
1.0 117 -178 0
1.0 -57 -98 0
1.0 165 -39 0
1.0 -166 7 0
1.0 -173 109 0
1.0 -116 166 0
1.0 -23 73 0
1.0 83 -47 0
1.0 -24 149 0
1.0 47 176 0
1.0 -14 -24 0
1.0 30 96 0
1.0 5 -183 0
1.0 -148 -195 0
1.0 68 -146 0
1.0 -192 156 0
1.0 105 -135 0
1.0 -111 -98 0
1.0 -121 -77 0
1.0 -172 -115 0
1.0 97 5 0
1.0 200 47 0
1.0 193 -82 0
1.0 -37 -166 0
1.0 101 95 0
1.0 -193 -53 0
1.0 129 -40 0
1.0 155 15 0
1.0 20 172 0
1.0 19 110 0
1.0 -191 104 0
1.0 -70 -194 0
1.0 -89 60 0
1.0 -112 117 0
1.0 -157 -56 0
1.0 -70 17 0
1.0 -189 57 0
1.0 167 -195 0
1.0 -98 -12 0
1.0 -6 154 0
1.0 -14 -119 0
1.0 -36 -169 0
1.0 -24 106 0
1.0 -122 -65 0
1.0 -122 91 0
1.0 85 -135 0
1.0 -147 -31 0
1.0 184 -87 0
1.0 -6 22 0
1.0 190 87 0
1.0 -193 -135 0
1.0 199 -90 0
1.0 181 141 0
1.0 76 53 0
1.0 -83 198 0
1.0 85 20 0
1.0 -41 186 0
1.0 72 163 0
1.0 -98 151 0
1.0 41 3 0
1.0 144 24 0
1.0 77 -135 0
1.0 133 15 0
1.0 -34 90 0
1.0 -75 -38 0
1.0 1 149 0
1.0 -100 -190 0
1.0 -192 -10 0
1.0 -34 -48 0
1.0 182 -194 0
1.0 -8 96 0
1.0 -186 38 0
1.0 76 22 0
1.0 -171 18 0
1.0 7 -167 0
1.0 -176 170 0
1.0 -18 -86 0
1.0 -79 190 0
1.0 -86 44 0
1.0 -81 -44 0
1.0 65 138 0
1.0 -156 -4 0
1.0 -170 -114 0
1.0 -84 -93 0
1.0 178 75 0
1.0 -64 -12 0
1.0 55 -70 0
1.0 113 -152 0
1.0 90 123 0
1.0 127 117 0
1.0 30 -167 0
1.0 59 197 0
1.0 72 -112 0
1.0 123 -35 0
1.0 105 113 0
1.0 -4 -195 0
1.0 8 -190 0
1.0 -196 -149 0
1.0 191 -66 0
1.0 79 -59 0
1.0 -151 -193 0
1.0 77 -91 0
1.0 3 108 0
1.0 -103 -181 0
1.0 171 -185 0
1.0 -134 -187 0
1.0 -52 -151 0
1.0 -9 -169 0
1.0 -162 34 0
1.0 125 -35 0
1.0 -143 56 0
1.0 -37 67 0
1.0 -52 -187 0
1.0 -173 102 0
1.0 -52 19 0
1.0 188 -76 0
1.0 -110 163 0
1.0 -198 -6 0
1.0 -62 96 0
1.0 -162 139 0
1.0 -125 78 0
1.0 -179 106 0
1.0 125 -78 0
1.0 153 109 0
1.0 72 47 0
1.0 53 -59 0
1.0 154 -193 0
1.0 -131 117 0
1.0 -194 -126 0
1.0 32 -75 0
1.0 152 -93 0
1.0 -1 128 0
1.0 -174 65 0
1.0 -123 149 0
1.0 -142 152 0
1.0 -69 121 0
1.0 47 82 0
1.0 157 -38 0
1.0 131 -101 0
1.0 28 181 0
1.0 45 -143 0
1.0 92 169 0
1.0 -121 -36 0
1.0 156 34 0
1.0 116 86 0
1.0 -124 113 0
1.0 -13 192 0
1.0 172 187 0
1.0 -129 71 0
1.0 40 -27 0
1.0 -62 160 0
1.0 194 -200 0
1.0 -85 98 0
1.0 10 159 0
1.0 151 -46 0
1.0 -33 -107 0
1.0 -177 122 0
1.0 -148 35 0
1.0 194 -125 0
1.0 124 45 0
1.0 143 -75 0
1.0 -33 -79 0
1.0 -125 -39 0
1.0 -145 -43 0
1.0 -165 -99 0
1.0 -134 -114 0
1.0 -38 -148 0
1.0 -193 -10 0
1.0 84 -186 0
1.0 65 -62 0
1.0 -101 4 0
1.0 -46 63 0
1.0 -162 104 0
1.0 18 43 0
1.0 190 -138 0
1.0 -148 185 0
1.0 -171 4 0
1.0 66 -46 0
1.0 50 169 0
1.0 -32 -177 0
1.0 81 27 0
1.0 -70 113 0
1.0 51 -168 0
1.0 153 -159 0
1.0 -162 177 0
1.0 -23 183 0
1.0 -151 -5 0
1.0 -182 72 0
1.0 -98 -66 0
1.0 178 113 0
1.0 80 68 0
1.0 -27 -55 0
1.0 31 115 0
1.0 -97 10 0
1.0 14 -91 0
1.0 162 7 0
1.0 72 17 0
1.0 129 53 0
1.0 121 -104 0
1.0 -159 -198 0
1.0 113 151 0
1.0 160 -167 0
1.0 -57 87 0
1.0 93 -26 0
1.0 43 -104 0
1.0 -157 93 0
1.0 197 -22 0
1.0 -19 -160 0
1.0 -111 187 0
1.0 153 196 0
1.0 83 -12 0
1.0 -38 105 0
1.0 9 -154 0
1.0 47 32 0
1.0 -53 68 0
1.0 28 -142 0
1.0 128 143 0
1.0 138 52 0
1.0 -64 -118 0
1.0 -22 135 0
1.0 -88 -32 0
1.0 -63 -39 0
1.0 -107 -174 0
1.0 116 189 0
1.0 -131 80 0
1.0 132 -14 0
1.0 131 -84 0
1.0 -18 -76 0
1.0 108 -179 0
1.0 18 -17 0
1.0 190 -71 0
1.0 -60 -129 0
1.0 9 -72 0
1.0 -85 149 0
1.0 -33 30 0
1.0 -105 150 0
1.0 -129 -197 0
1.0 13 66 0
1.0 -137 -126 0
1.0 55 -188 0
1.0 48 -4 0
1.0 138 -25 0
1.0 192 -79 0
1.0 36 83 0
1.0 65 -16 0
1.0 84 46 0
1.0 153 64 0
1.0 -51 129 0
1.0 132 144 0
1.0 169 -122 0
1.0 -1 107 0
1.0 190 172 0
1.0 -187 111 0
1.0 157 -51 0
1.0 -114 -146 0
1.0 74 50 0
1.0 194 -157 0
1.0 -78 109 0
1.0 -15 24 0
1.0 195 -182 0
1.0 93 40 0
1.0 -91 133 0
1.0 -78 -76 0
1.0 -126 -32 0
1.0 188 29 0
1.0 -137 -3 0
1.0 -26 59 0
1.0 41 -11 0
1.0 -51 -53 0
1.0 -185 143 0
1.0 19 -115 0
1.0 146 -169 0
1.0 -198 -144 0
1.0 146 -144 0
1.0 -2 40 0
1.0 -50 -192 0
1.0 44 160 0
1.0 103 -187 0
1.0 101 104 0
1.0 -72 127 0
1.0 70 180 0
1.0 -123 -89 0
1.0 -128 -178 0
1.0 169 143 0
1.0 103 120 0
1.0 -106 132 0
1.0 35 -189 0
1.0 -116 -34 0
1.0 13 -179 0
1.0 67 -188 0
1.0 -165 -25 0
1.0 -168 50 0
1.0 169 188 0
1.0 120 -1 0
1.0 189 -135 0
1.0 168 -35 0
1.0 -14 90 0
1.0 78 173 0
1.0 -198 -46 0
1.0 95 123 0
1.0 111 -139 0
1.0 20 -183 0
1.0 -43 4 0
1.0 93 -101 0
1.0 15 -171 0
1.0 -44 103 0
1.0 -79 150 0
1.0 -186 48 0
1.0 187 141 0
1.0 -124 -107 0
1.0 111 80 0
1.0 -181 -134 0
1.0 -105 -47 0
1.0 149 168 0
1.0 117 -21 0
1.0 -69 140 0
1.0 80 6 0
1.0 -113 20 0
1.0 99 13 0
1.0 147 13 0
1.0 -59 58 0
1.0 25 -36 0
1.0 57 -64 0
1.0 -4 42 0
1.0 48 -40 0
1.0 -60 -55 0
1.0 68 8 0
1.0 20 113 0
1.0 170 -62 0
1.0 -98 -121 0
1.0 185 -180 0
1.0 22 58 0
1.0 98 -157 0
1.0 -12 10 0
1.0 18 153 0
1.0 -65 156 0
1.0 18 -2 0
1.0 123 -166 0
1.0 145 -146 0
1.0 4 -164 0
1.0 120 -64 0
